(declare-fun bvlambda_64_ ()Bool         )
(declare-fun a161 () (Array (_ BitVec 1) (_ BitVec 6)))
(assert
(let (($e6 (_ bv4 3)))
(let (($e10 (_ bv4 6)))
(let (($e198 (concat        $e6  bvlambda_64_)))
(let (($e199 (concat $e198 bvlambda_64_)))
(let (($e200 (concat $e199 bvlambda_64_)))
(let (($e207 (store a161 true         $e200)))
(let (($e208 (store $e207 bvlambda_64_ $e10)))
(let (($e209 (select $e208 true       )))
             (   extract        $e209)
                                                                                                                                                                                                                                                                                                                                                                                                                                                                                                                                                                                                                                                                                                                                                                                                                                                                                                                                                                                                                                                                                                                                                                                                                                                                                                                                                                                                                                                                                                                                                                                                                                                                                                                                                                                                                                                                                                                                                                                                                                                                                                                                                                                                                                                                                                                                                                                                                                                                       )))      )))                                                                                                          )   )     )
